{'code': [3, 14, 10, 18, 18, 9, 8, 2, 7, 18, 1, 9, 8, 10, 7, 12, 16, 15, 4, 11, 12, 17, 3, 4, 15, 17
, 12, 16, 19, 3, 10, 15, 5, 3, 15, 19, 15, 16, 12, 5, 15, 11, 1, 14, 0, 9, 3, 8, 12, 0, 15, 13, 1, 7
, 10, 1, 14, 0, 19, 5, 0, 4, 19, 16, 13, 18, 2, 6, 1, 2, 9, 4, 18, 17, 6, 14, 16, 7, 14, 18, 18, 5, 
19, 9, 6, 19, 9, 13, 10, 13, 13, 15, 4, 6, 13, 12, 13, 15, 3, 7, 16, 4, 5, 16, 6, 4, 12, 19, 6, 7, 6
, 11, 1, 9, 17, 9, 13, 10, 7, 3, 11, 8, 11, 19, 16, 18, 14, 10, 11, 14, 5, 14, 7, 17, 19, 0, 18, 10,
 9, 14, 18, 6, 3, 4, 6, 7, 0, 2, 8, 6, 3, 13, 4, 2, 8, 9, 4, 12, 5, 4, 15, 17, 16, 5, 16, 6, 17, 1, 
13, 14, 6, 12, 5, 8, 4, 2, 5, 1, 0, 9, 0, 1, 11, 16, 12, 7, 0, 6, 11, 8, 19, 2, 16, 18, 14, 1, 19, 0
, 18, 4, 3, 15, 19, 10, 11, 18, 1, 3, 7, 0, 9, 2, 15, 19, 8, 10, 2, 17, 15, 8, 17, 6, 12, 17, 7, 11,
 14, 1, 5, 16, 4, 0, 2, 17, 7, 15, 1, 8, 11, 2], 'route': None, 'mac': [[5, 5, 1, 8, 0, 3, 3, 8, 9, 
8, 1, 0], [5, 7, 1, 0, 2, 3, 12, 2, 7, 7, 0, 9, 1], [2, 0, 0, 5, 0, 9, 2, 8, 9, 6, 1], [4, 2, 4, 1, 
9, 6, 2, 5, 1, 7, 8], [6, 9, 6, 5, 2, 6, 2, 1, 7, 0, 0, 0, 3, 8], [8, 0, 8, 1, 9, 5, 5, 1, 3, 12, 4]
, [1, 6, 0, 9, 7, 0, 6, 7, 0, 4, 3, 4, 2, 6], [7, 9, 6, 7, 3, 8, 2, 6, 6, 5, 5, 4, 9], [6, 6, 8, 8, 
1, 7, 3, 9, 3, 5, 0], [9, 4, 1, 8, 9, 0, 9, 9, 1, 2, 3, 7], [9, 6, 3, 9, 4, 0, 1, 1, 7, 2], [9, 4, 9
, 3, 12, 1, 6, 1, 0, 7, 0], [3, 1, 3, 6, 8, 2, 5, 6, 8, 7, 1], [1, 8, 0, 1, 2, 4, 9, 2, 1, 2], [8, 4
, 8, 3, 4, 3, 6, 5, 9, 2, 5, 12], [5, 4, 1, 3, 1, 4, 1, 8, 3, 1, 9, 4, 2, 5], [3, 2, 1, 5, 9, 7, 7, 
12, 5, 0, 2, 1, 2], [3, 0, 7, 5, 1, 1, 9, 5, 8, 1, 3], [1, 5, 1, 0, 2, 4, 2, 8, 9, 0, 6, 4, 9], [0, 
8, 12, 1, 4, 4, 6, 8, 6, 8, 6, 6, 0]], 'wok': None}
